
******************************************************************************
This program contains Ipopt, a library for large-scale nonlinear optimization.
 Ipopt is released as open source code under the Eclipse Public License (EPL).
         For more information visit http://projects.coin-or.org/Ipopt

This version of Ipopt was compiled from source code available at
    https://github.com/IDAES/Ipopt as part of the Institute for the Design of
    Advanced Energy Systems Process Systems Engineering Framework (IDAES PSE
    Framework) Copyright (c) 2018-2019. See https://github.com/IDAES/idaes-pse.

This version of Ipopt was compiled using HSL, a collection of Fortran codes
    for large-scale scientific computation.  All technical papers, sales and
    publicity material resulting from use of the HSL codes within IPOPT must
    contain the following acknowledgement:
        HSL, a collection of Fortran codes for large-scale scientific
        computation. See http://www.hsl.rl.ac.uk.
******************************************************************************

This is Ipopt version 3.13.2, running with linear solver ma27.

Number of nonzeros in equality constraint Jacobian...:      958
Number of nonzeros in inequality constraint Jacobian.:        0
Number of nonzeros in Lagrangian Hessian.............:      832

Total number of variables............................:      416
                     variables with only lower bounds:      128
                variables with lower and upper bounds:      224
                     variables with only upper bounds:        0
Total number of equality constraints.................:      415
Total number of inequality constraints...............:        0
        inequality constraints with only lower bounds:        0
   inequality constraints with lower and upper bounds:        0
        inequality constraints with only upper bounds:        0

iter    objective    inf_pr   inf_du lg(mu)  ||d||  lg(rg) alpha_du alpha_pr  ls
   0  0.0000000e+00 5.30e-01 8.88e-16  -1.0 0.00e+00    -  0.00e+00 0.00e+00   0
   1  1.5606295e-01 4.28e-01 4.19e+02  -1.0 1.89e+05    -  7.07e-01 1.48e-01h  1
   2  1.6260317e-01 4.26e-01 1.04e+03  -1.0 1.77e+05    -  7.77e-01 3.72e-03h  1
   3  1.7921174e+01 3.83e-02 4.62e+04  -1.0 2.47e+05    -  7.66e-01 9.90e-01h  1
   4  2.3788834e+01 1.16e-03 9.62e+02  -1.0 4.30e+04    -  9.54e-01 9.90e-01h  1
   5  2.3978188e+01 1.24e-05 2.17e+01  -1.0 1.43e+03    -  9.90e-01 9.90e-01h  1
   6  2.4039793e+01 8.58e-07 4.79e+01  -1.0 7.15e+02    -  9.90e-01 9.90e-01h  1
   7  2.3978759e+01 9.14e-07 3.84e+02  -2.5 7.11e+02    -  9.97e-01 9.97e-01h  1
   8  2.3978265e+01 1.33e-10 9.42e+04  -3.8 5.66e+00    -  1.00e+00 1.00e+00h  1
In iteration 8, 32 Slacks too small, adjusting variable bounds
   9  2.3978266e+01 1.24e-12 6.26e+08  -3.8 1.09e-02    -  1.00e+00 1.00e+00h  1
iter    objective    inf_pr   inf_du lg(mu)  ||d||  lg(rg) alpha_du alpha_pr  ls
  10  2.3978266e+01 1.16e-12 2.07e-04  -3.8 1.67e-06    -  1.00e+00 1.00e+00h  1
  11  2.3978116e+01 1.46e-12 4.27e+04  -9.0 1.75e+00    -  1.00e+00 1.00e+00F  1
  12  2.3978116e+01 7.49e-13 7.73e-12  -9.0 1.05e-05    -  1.00e+00 1.00e+00f  1

Number of Iterations....: 12

                                   (scaled)                 (unscaled)
Objective...............:   2.3978115834591947e+01    2.3978115834591947e+01
Dual infeasibility......:   7.7307049650698900e-12    7.7307049650698900e-12
Constraint violation....:   7.4873440780720557e-13    7.4873440780720557e-13
Complementarity.........:   9.0909146840775068e-10    9.0909146840775068e-10
Overall NLP error.......:   4.0341431039000943e-10    9.0909146840775068e-10


Number of objective function evaluations             = 14
Number of objective gradient evaluations             = 13
Number of equality constraint evaluations            = 14
Number of inequality constraint evaluations          = 0
Number of equality constraint Jacobian evaluations   = 13
Number of inequality constraint Jacobian evaluations = 0
Number of Lagrangian Hessian evaluations             = 12
Total CPU secs in IPOPT (w/o function evaluations)   =      0.032
Total CPU secs in NLP function evaluations           =      0.263

EXIT: Optimal Solution Found.
